c uprop, v00.0, 
c reading from data/prog338.c.cnf
c done reading: 0.002865
p cnf 119 387
-63 -68 0
63 68 0
63 -69 0
-63 69 0
68 -73 0
-73 -117 0
-68 73 117 0
-68 -80 117 0
68 -80 -117 0
68 80 117 0
-68 80 -117 0
73 -84 0
-73 84 0
-73 -89 0
73 89 0
84 -94 0
-84 94 0
-84 -97 0
84 97 0
-66 94 0
66 -94 0
-76 -94 0
76 94 0
66 -99 0
-66 99 0
-59 -66 0
59 66 0
-58 99 0
58 -99 0
-56 -99 0
56 99 0
-55 63 0
55 -63 0
54 -63 -117 0
-54 63 117 0
-54 117 0
-54 63 0
-53 -54 117 0
-53 -54 63 0
-53 -54 0
53 54 -117 0
53 54 -63 0
-53 63 117 0
52 -54 -117 0
-52 117 0
-52 54 0
-52 54 117 0
-48 -52 0
-48 -52 117 0
-48 -52 54 0
48 52 -117 0
48 52 -54 0
-48 54 117 0
46 -52 0
-46 52 0
53 -71 0
-53 71 0
-48 -63 78 0
48 63 -78 0
48 -78 0
63 -78 0
48 -78 -82 0
63 -78 -82 0
-78 -82 0
-48 78 82 0
-63 78 82 0
48 63 -82 0
-46 87 -117 0
-46 -78 87 0
-78 87 -117 0
46 -87 117 0
46 78 -87 0
78 -87 117 0
46 -87 -92 0
-87 -92 117 0
78 -87 -92 0
-46 87 92 0
87 92 -117 0
-78 87 92 0
-46 -78 92 -117 0
46 78 -92 117 0
62 -87 0
-62 87 0
-51 92 0
51 -92 0
-62 -63 100 0
62 63 -100 0
62 -100 0
63 -100 0
62 -100 -102 0
63 -100 -102 0
-100 -102 0
-62 100 102 0
-63 100 102 0
62 63 -102 0
-100 103 -117 0
-103 117 0
100 -103 0
100 -103 117 0
-103 -105 0
-103 -105 117 0
100 -103 -105 0
103 105 -117 0
-100 103 105 0
100 -105 117 0
-103 107 0
103 -107 0
-85 102 0
85 -102 0
-63 90 -105 0
63 -90 105 0
-90 105 0
63 -90 0
-90 -95 105 0
63 -90 -95 0
-90 -95 0
90 95 -105 0
-63 90 95 0
63 -95 105 0
-107 -117 0
-90 -107 0
-90 -117 0
67 -107 0
67 -117 0
67 -90 0
67 -90 -107 -117 0
-67 90 107 117 0
-49 -55 0
49 55 0
55 -108 0
-55 108 0
-47 49 0
-47 -71 0
47 -49 71 0
-49 71 -109 0
49 -71 -109 0
49 71 109 0
-49 -71 109 0
47 -110 0
-82 -110 0
-47 82 110 0
-47 82 -111 0
47 -82 -111 0
47 82 111 0
-47 -82 111 0
110 -112 0
-51 -112 0
51 -110 112 0
51 -110 -113 0
-51 110 -113 0
51 110 113 0
-51 -110 113 0
112 -114 0
-85 -114 0
85 -112 114 0
-60 85 -112 0
-60 -85 112 0
60 85 112 0
60 -85 -112 0
-74 114 0
-74 -95 0
74 95 -114 0
95 -114 -115 0
-95 114 -115 0
95 114 115 0
-95 -114 115 0
-72 74 0
-67 -72 0
67 72 -74 0
67 -74 -79 0
-67 74 -79 0
67 74 79 0
-67 -74 79 0
72 -83 0
-72 83 0
-72 -88 0
72 88 0
83 -93 0
-83 93 0
-83 -116 0
83 116 0
-64 93 0
64 -93 0
-93 -118 0
93 118 0
64 -119 0
-64 119 0
-45 -64 0
45 64 0
-44 119 0
44 -119 0
-43 -119 0
43 119 0
-42 44 0
42 -44 0
-41 -44 0
41 44 0
-39 -40 0
-38 -39 0
38 39 40 0
-37 38 40 0
-37 -38 -40 0
37 38 -40 0
37 -38 40 0
-35 39 0
-35 -36 0
35 36 -39 0
-34 36 -39 0
-34 -36 39 0
34 36 39 0
34 -36 -39 0
-33 35 0
33 -35 0
-32 -35 0
32 35 0
-31 33 0
31 -33 0
-30 -33 0
30 33 0
-29 31 0
29 -31 0
-28 -31 0
28 31 0
-27 29 0
27 -29 0
-26 -29 0
26 29 0
-25 27 0
25 -27 0
-24 -27 0
24 27 0
-23 40 0
23 -40 0
22 -38 0
-22 38 0
21 -36 0
-21 36 0
22 -96 0
40 -96 0
-22 -40 96 0
-22 -40 -65 0
22 40 -65 0
-22 40 65 0
22 -40 65 0
-21 -38 75 0
-21 75 -96 0
-38 75 -96 0
21 38 -75 0
21 -75 96 0
38 -75 96 0
21 -75 -98 0
38 -75 -98 0
-75 96 -98 0
-21 75 98 0
-38 75 98 0
75 -96 98 0
-21 -38 -96 98 0
21 38 96 -98 0
-36 -75 0
-36 57 0
57 -75 0
36 -57 75 0
-20 -40 0
-20 -38 0
20 38 40 0
-19 38 40 0
-19 -38 -40 0
19 38 -40 0
19 -38 40 0
-18 20 0
-18 -36 0
18 -20 36 0
-17 -20 36 0
-17 20 -36 0
17 20 36 0
17 -20 -36 0
-16 18 0
-16 -23 0
16 -18 23 0
-15 -18 23 0
-15 18 -23 0
15 18 23 0
15 -18 -23 0
-14 16 0
-14 -65 0
14 -16 65 0
-13 -16 65 0
-13 16 -65 0
13 16 65 0
13 -16 -65 0
14 -70 0
-70 -98 0
-14 70 98 0
-14 -77 98 0
14 -77 -98 0
14 77 98 0
-14 77 -98 0
70 -81 0
-57 -81 0
57 -70 81 0
57 -70 -86 0
-57 70 -86 0
57 70 86 0
-57 -70 86 0
81 -91 0
-81 91 0
-12 -81 0
12 81 0
-61 91 0
61 -91 0
-11 -91 0
11 91 0
-10 61 0
10 -61 0
-9 -61 0
9 61 0
-8 10 0
8 -10 0
-7 -10 0
7 10 0
-6 8 0
6 -8 0
-5 -8 0
5 8 0
-4 6 0
4 -6 0
-3 -6 0
3 6 0
-50 55 0
40 -50 0
-40 50 -55 0
-40 -55 0
40 55 0
-38 -71 101 0
-50 -71 101 0
-38 -50 101 0
38 71 -101 0
50 71 -101 0
38 50 -101 0
-71 101 0
-38 101 0
-50 101 0
-38 -50 -71 0
-36 -82 104 0
-82 -101 104 0
-36 -101 104 0
36 82 -104 0
82 101 -104 0
36 101 -104 0
-82 104 0
-36 104 0
-101 104 0
-36 -82 -101 0
-23 -51 106 0
-51 -104 106 0
-23 -104 106 0
23 51 -106 0
51 104 -106 0
23 104 -106 0
-51 106 0
-23 106 0
-104 106 0
-23 -51 -104 0
2 -65 -85 0
2 -85 -106 0
2 -65 -106 0
-2 65 85 0
-2 85 106 0
-2 65 106 0
2 -85 0
2 -65 0
2 -106 0
-65 -85 -106 0
1 -95 -98 0
1 -2 -95 0
1 -2 -98 0
-1 95 98 0
-1 2 95 0
-1 2 98 0
1 -95 0
1 -98 0
1 -2 0
-2 -95 -98 0
-57 -67 0
-1 -67 0
-1 -57 0
1 57 67 0
